ch10/model.lp
\* Source Pyomo model name='(WL)' *\

min 
x16:
+324 x1
+567 x10
+1792 x11
+1096 x12
+1236 x2
+485 x3
+485 x4
+1410 x5
+330 x6
+1606 x7
+1956 x8
+531 x9

s.t.

c_e_x17_:
+1 x1
+1 x5
+1 x9
= 1

c_e_x18_:
+1 x10
+1 x2
+1 x6
= 1

c_e_x19_:
+1 x11
+1 x3
+1 x7
= 1

c_e_x20_:
+1 x12
+1 x4
+1 x8
= 1

c_u_x21_:
+1 x1
-1 x13
<= 0

c_u_x22_:
-1 x13
+1 x2
<= 0

c_u_x23_:
-1 x13
+1 x3
<= 0

c_u_x24_:
-1 x13
+1 x4
<= 0

c_u_x25_:
-1 x14
+1 x5
<= 0

c_u_x26_:
-1 x14
+1 x6
<= 0

c_u_x27_:
-1 x14
+1 x7
<= 0

c_u_x28_:
-1 x14
+1 x8
<= 0

c_u_x29_:
-1 x15
+1 x9
<= 0

c_u_x30_:
+1 x10
-1 x15
<= 0

c_u_x31_:
+1 x11
-1 x15
<= 0

c_u_x32_:
+1 x12
-1 x15
<= 0

c_u_x33_:
+1 x13
+1 x14
+1 x15
<= 2

c_e_ONE_VAR_CONSTANT: 
ONE_VAR_CONSTANT = 1.0

bounds
   0 <= x1 <= 1
   0 <= x2 <= 1
   0 <= x3 <= 1
   0 <= x4 <= 1
   0 <= x5 <= 1
   0 <= x6 <= 1
   0 <= x7 <= 1
   0 <= x8 <= 1
   0 <= x9 <= 1
   0 <= x10 <= 1
   0 <= x11 <= 1
   0 <= x12 <= 1
   0 <= x13 <= 1
   0 <= x14 <= 1
   0 <= x15 <= 1
binary
  x13
  x14
  x15
end
